50
16530

493 783
594 719
512 429
67 778
383 857
759 661
509 64
274 742
554 503
791 973
44 906
250 799
194 842
17 127
133 929
594 63
440 983
679 384
623 98
58 740
804 767
567 859
552 774
919 232
373 234
216 115
980 529
320 721
974 864
402 485
940 872
643 887
992 95
945 206
948 374
323 962
418 829
279 204
722 407
474 823
304 326
375 419
654 302
797 878
688 227
430 671
684 16
430 805
507 580
349 508
